
        $ From http://www.csplib.org/Problems/prob009/data/helmut.pdf
        $ Problem number 9
        $ Sequence length : 22
        language ESSENCE' 1.0
        letting sizemaster be 192
        letting sizes be sequence(4,8,9,10,12,14,17,19,26,28,31,35,36,37,41,47,49,57,59,62,71,86)
        